Minimize
obj: 2y_1 + 2y_2 + 2y_3 + 2y_4 + 2y_5 + 2y_6 + 2y_7 + 2y_8 + 2y_9 + 1y_10 + 1y_11 + 1y_12 + 1y_13 + 1y_14 + 1y_15 + 2y_16 + 1y_17 + 1y_18 + 1y_19 + 1y_20 + 1y_21 + 1y_22 + 2y_23 + 1y_24 + 1y_25 + 1y_26 + 1y_27 + 2y_28 + 1y_29 + 2y_30 + 1y_31 + 2y_32 + 1y_33 + 1y_34 + 1y_35 + 1y_36 + 1y_37 + 1y_38 + 1y_39 + 1y_40 + 1y_41 + 1y_42 + 2y_43 + 1y_44 + 1y_45 + 1y_46 + 1y_47 + 1y_48 + 1y_49 + 2y_50 + 1y_51 + 1y_52 + 1y_53 + 1y_54 + 1y_55 + 1y_56 + 1y_57 + 1y_58 + 1y_59 + 2y_60 + 1y_61 + 1y_62 + 1y_63 + 1y_64 + 1y_65 + 1y_66 + 1y_67 + 1y_68 + 1y_69 + 1y_70 + 1y_71 + 2y_72 + 1y_73 + 2y_74 + 1y_75 + 1y_76 + 1y_77 + 1y_78 + 1y_79 + 1y_80 + 1y_81 + 2y_82 + 1y_83 + 1y_84 + 1y_85 + 1y_86 + 1y_87 + 1y_88 + 1y_89 + 1y_90 + 2y_91 + 1y_92 + 1y_93 + 1y_94 + 1y_95 + 1y_96 + 1y_97 + 1y_98 + 1y_99 + 1y_100 + 1y_101 + 1y_102 + 2y_103 + 1y_104 + 1y_105 + 1y_106 + 1y_107 + 1y_108 + 1y_109 + 2y_110 + 1y_111 + 1y_112 + 1y_113 + 1y_114 + 1y_115 + 2y_116 + 2y_117 + 1y_118 + 1y_119 + 1y_120 + 1y_121 + 2y_122 + 1y_123 + 1y_124 + 1y_125 + 1y_126 + 2y_127 + 1y_128 + 1y_129 + 1y_130 + 1y_131 + 1y_132 + 1y_133 + 1y_134 + 1y_135 + 2y_136 + 2y_137 + 2y_138 + 2y_139 + 2y_140 + 2y_141 + 2y_142 + 2y_143 + 2y_144 + 1y_145 + 2y_146 + 1y_147 + 1y_148 + 2y_149 + 1y_150 + 1y_151 + 2y_152 + 1y_153 + 1y_154 + 1y_155 + 1y_156 + 1y_157 + 1y_158 + 1y_159 + 1y_160 + 1y_161 + 2y_162 + 1y_163 + 1y_164 + 1y_165 + 1y_166 + 1y_167 + 2y_168 + 1y_169 + 1y_170 + 1y_171 + 2y_172 + 2y_173 + 2y_174 + 2y_175 + 2y_176 + 2y_177 + 2y_178 + 2y_179 + 2y_180 + 1y_181 + 1y_182 + 1y_183 + 2y_184 + 1y_185 + 1y_186 + 1y_187 + 1y_188 + 1y_189 + 2y_190 + 1y_191 + 1y_192 + 1y_193 + 1y_194 + 1y_195 + 1y_196 + 1y_197 + 1y_198 + 1y_199 + 1y_200 + 1y_201 + 1y_202 + 1y_203 + 1y_204 + 1y_205 + 1y_206 + 2y_207 + 1y_208 + 1y_209 + 1y_210 + 1y_211 + 1y_212 + 1y_213 + 1y_214 + 1y_215 + 2y_216 + 1y_217 + 1y_218 + 1y_219 + 1y_220 + 1y_221 + 1y_222 + 1y_223 + 1y_224 + 2y_225 + 1y_226 + 1y_227 + 1y_228 + 1y_229 + 1y_230 + 1y_231 + 2y_232 + 1y_233 + 1y_234 + 1y_235 + 1y_236 + 1y_237 + 2y_238 + 1y_239 + 1y_240 + 1y_241 + 1y_242 + 1y_243 + 1y_244 + 1y_245 + 1y_246 + 1y_247 + 1y_248 + 1y_249 + 1y_250 + 2y_251 + 1y_252 + 2y_253 + 2y_254 + 2y_255 + 2y_256 + 2y_257 + 2y_258 + 2y_259 + 2y_260 + 2y_261 + 1y_262 + 1y_263 + 1y_264 + 1y_265 + 1y_266 + 2y_267 + 1y_268 + 1y_269 + 1y_270 + 1y_271 + 1y_272 + 1y_273 + 1y_274 + 1y_275 + 1y_276 + 1y_277 + 2y_278 + 1y_279 + 1y_280 + 2y_281 + 1y_282 + 1y_283 + 1y_284 + 2y_285 + 1y_286 + 2y_287 + 1y_288 + 1y_289 + 1y_290 + 1y_291 + 1y_292 + 1y_293 + 1y_294 + 1y_295 + 2y_296 + 1y_297 + 1y_298 + 1y_299 + 1y_300 + 2y_301 + 1y_302 + 1y_303 + 1y_304 + 1y_305 + 1y_306 + 1y_307 + 1y_308 + 1y_309 + 1y_310 + 2y_311 + 1y_312 + 1y_313 + 1y_314 + 1y_315 + 1y_316 + 1y_317 + 1y_318 + 1y_319 + 2y_320 + 1y_321 + 1y_322 + 1y_323 + 1y_324 + 1y_325 + 1y_326 + 1y_327 + 2y_328 + 1y_329 + 1y_330 + 1y_331 + 1y_332 + 1y_333 + 2y_334 + 2y_335 + 2y_336 + 2y_337 + 2y_338 + 2y_339 + 2y_340 + 2y_341 + 2y_342 + 1y_343 + 1y_344 + 1y_345 + 2y_346 + 1y_347 + 1y_348 + 1y_349 + 2y_350 + 2y_351 + 1y_352 + 1y_353 + 1y_354 + 2y_355 + 1y_356 + 1y_357 + 1y_358 + 1y_359 + 1y_360 + 1y_361 + 1y_362 + 2y_363 + 1y_364 + 1y_365 + 1y_366 + 1y_367 + 1y_368 + 1y_369 + 2y_370 + 1y_371 + 2y_372 + 1y_373 + 1y_374 + 2y_375 + 1y_376 + 1y_377 + 1y_378 + 2y_379 + 2y_380 + 2y_381 + 2y_382 + 2y_383 + 2y_384 + 2y_385 + 2y_386 + 2y_387 + 1y_388 + 1y_389 + 1y_390 + 1y_391 + 1y_392 + 2y_393 + 1y_394 + 1y_395 + 1y_396 + 1y_397 + 1y_398 + 1y_399 + 1y_400 + 1y_401 + 1y_402 + 1y_403 + 2y_404 + 1y_405 + 1y_406 + 1y_407 + 1y_408 + 2y_409 + 1y_410 + 1y_411 + 1y_412 + 1y_413 + 1y_414 + 1y_415 + 1y_416 + 1y_417 + 1y_418 + 1y_419 + 1y_420 + 1y_421 + 1y_422 + 2y_423 + 1y_424 + 1y_425 + 1y_426 + 2y_427 + 1y_428 + 1y_429 + 1y_430 + 1y_431 + 1y_432 + 1y_433 + 1y_434 + 1y_435 + 2y_436 + 1y_437 + 1y_438 + 1y_439 + 1y_440 + 1y_441 + 1y_442 + 1y_443 + 1y_444 + 2y_445 + 1y_446 + 1y_447 + 1y_448 + 1y_449 + 1y_450 + 1y_451 + 1y_452 + 1y_453 + 1y_454 + 1y_455 + 1y_456 + 2y_457 + 1y_458 + 1y_459 + 1y_460 + 1y_461 + 1y_462 + 2y_463 + 1y_464 + 1y_465 + 1y_466 + 1y_467 + 1y_468 + 1y_469 + 1y_470 + 2y_471 + 1y_472 + 1y_473 + 1y_474 + 1y_475 + 1y_476 + 1y_477 + 1y_478 + 2y_479 + 1y_480 + 1y_481 + 1y_482 + 1y_483 + 1y_484 + 2y_485 + 2y_486 + 2y_487 + 2y_488 + 2y_489 + 2y_490 + 2y_491 + 2y_492 + 2y_493 + 2y_494 + 2y_495 + 1y_496 + 1y_497 + 1y_498 + 1y_499 + 2y_500 + 1y_501 + 1y_502 + 1y_503 + 1y_504 + 1y_505 + 1y_506 + 1y_507 + 1y_508 + 1y_509 + 1y_510 + 1y_511 + 1y_512 + 2y_513 + 2y_514 + 2y_515 + 2y_516 + 2y_517 + 2y_518 + 2y_519 + 2y_520 + 2y_521 + 2y_522 + 1y_523 + 1y_524 + 2y_525 + 1y_526 + 2y_527 + 1y_528 + 2y_529 + 1y_530 + 1y_531 + 1y_532 + 1y_533 + 1y_534 + 1y_535 + 2y_536 + 1y_537 + 1y_538 + 1y_539 + 1y_540 + 2y_541 + 1y_542 + 1y_543 + 1y_544 + 1y_545 + 1y_546 + 1y_547 + 1y_548 + 1y_549 + 1y_550 + 1y_551 + 1y_552 + 2y_553 + 1y_554 + 1y_555 + 1y_556 + 1y_557 + 1y_558 + 1y_559 + 1y_560 + 1y_561 + 1y_562 + 1y_563 + 1y_564 + 1y_565 + 1y_566 + 2y_567 + 2y_568 + 1y_569 + 1y_570 + 1y_571 + 1y_572 + 1y_573 + 1y_574 + 1y_575 + 1y_576
Subject To
x_577 = 7
x_578 = 1
x_579 = 1
x_580 = 1
x_581 = 1
x_582 = 1
x_583 = 1
x_584 = 1
x_1 - 8y_1 <= 0
x_2 - 8y_2 <= 0
x_3 - 8y_3 <= 0
x_4 - 8y_4 <= 0
x_5 - 8y_5 <= 0
x_6 - 8y_6 <= 0
x_7 - 8y_7 <= 0
x_8 - 8y_8 <= 0
x_9 - 8y_9 <= 0
x_10 - 8y_10 <= 0
x_11 - 8y_11 <= 0
x_12 - 8y_12 <= 0
x_13 - 8y_13 <= 0
x_14 - 8y_14 <= 0
x_15 - 8y_15 <= 0
x_16 - 8y_16 <= 0
x_17 - 8y_17 <= 0
x_18 - 8y_18 <= 0
x_19 - 8y_19 <= 0
x_20 - 8y_20 <= 0
x_21 - 8y_21 <= 0
x_22 - 8y_22 <= 0
x_23 - 8y_23 <= 0
x_24 - 8y_24 <= 0
x_25 - 8y_25 <= 0
x_26 - 8y_26 <= 0
x_27 - 8y_27 <= 0
x_28 - 8y_28 <= 0
x_29 - 8y_29 <= 0
x_30 - 8y_30 <= 0
x_31 - 8y_31 <= 0
x_32 - 8y_32 <= 0
x_33 - 8y_33 <= 0
x_34 - 8y_34 <= 0
x_35 - 8y_35 <= 0
x_36 - 8y_36 <= 0
x_37 - 8y_37 <= 0
x_38 - 8y_38 <= 0
x_39 - 8y_39 <= 0
x_40 - 8y_40 <= 0
x_41 - 8y_41 <= 0
x_42 - 8y_42 <= 0
x_43 - 8y_43 <= 0
x_44 - 8y_44 <= 0
x_45 - 8y_45 <= 0
x_46 - 8y_46 <= 0
x_47 - 8y_47 <= 0
x_48 - 8y_48 <= 0
x_49 - 8y_49 <= 0
x_50 - 8y_50 <= 0
x_51 - 8y_51 <= 0
x_52 - 8y_52 <= 0
x_53 - 8y_53 <= 0
x_54 - 8y_54 <= 0
x_55 - 8y_55 <= 0
x_56 - 8y_56 <= 0
x_57 - 8y_57 <= 0
x_58 - 8y_58 <= 0
x_59 - 8y_59 <= 0
x_60 - 8y_60 <= 0
x_61 - 8y_61 <= 0
x_62 - 8y_62 <= 0
x_63 - 8y_63 <= 0
x_64 - 8y_64 <= 0
x_65 - 8y_65 <= 0
x_66 - 8y_66 <= 0
x_67 - 8y_67 <= 0
x_68 - 8y_68 <= 0
x_69 - 8y_69 <= 0
x_70 - 8y_70 <= 0
x_71 - 8y_71 <= 0
x_72 - 8y_72 <= 0
x_73 - 8y_73 <= 0
x_74 - 8y_74 <= 0
x_75 - 8y_75 <= 0
x_76 - 8y_76 <= 0
x_77 - 8y_77 <= 0
x_78 - 8y_78 <= 0
x_79 - 8y_79 <= 0
x_80 - 8y_80 <= 0
x_81 - 8y_81 <= 0
x_82 - 8y_82 <= 0
x_83 - 8y_83 <= 0
x_84 - 8y_84 <= 0
x_85 - 8y_85 <= 0
x_86 - 8y_86 <= 0
x_87 - 8y_87 <= 0
x_88 - 8y_88 <= 0
x_89 - 8y_89 <= 0
x_90 - 8y_90 <= 0
x_91 - 8y_91 <= 0
x_92 - 8y_92 <= 0
x_93 - 8y_93 <= 0
x_94 - 8y_94 <= 0
x_95 - 8y_95 <= 0
x_96 - 8y_96 <= 0
x_97 - 8y_97 <= 0
x_98 - 8y_98 <= 0
x_99 - 8y_99 <= 0
x_100 - 8y_100 <= 0
x_101 - 8y_101 <= 0
x_102 - 8y_102 <= 0
x_103 - 8y_103 <= 0
x_104 - 8y_104 <= 0
x_105 - 8y_105 <= 0
x_106 - 8y_106 <= 0
x_107 - 8y_107 <= 0
x_108 - 8y_108 <= 0
x_109 - 8y_109 <= 0
x_110 - 8y_110 <= 0
x_111 - 8y_111 <= 0
x_112 - 8y_112 <= 0
x_113 - 8y_113 <= 0
x_114 - 8y_114 <= 0
x_115 - 8y_115 <= 0
x_116 - 8y_116 <= 0
x_117 - 8y_117 <= 0
x_118 - 8y_118 <= 0
x_119 - 8y_119 <= 0
x_120 - 8y_120 <= 0
x_121 - 8y_121 <= 0
x_122 - 8y_122 <= 0
x_123 - 8y_123 <= 0
x_124 - 8y_124 <= 0
x_125 - 8y_125 <= 0
x_126 - 8y_126 <= 0
x_127 - 8y_127 <= 0
x_128 - 8y_128 <= 0
x_129 - 8y_129 <= 0
x_130 - 8y_130 <= 0
x_131 - 8y_131 <= 0
x_132 - 8y_132 <= 0
x_133 - 8y_133 <= 0
x_134 - 8y_134 <= 0
x_135 - 8y_135 <= 0
x_136 - 8y_136 <= 0
x_137 - 8y_137 <= 0
x_138 - 8y_138 <= 0
x_139 - 8y_139 <= 0
x_140 - 8y_140 <= 0
x_141 - 8y_141 <= 0
x_142 - 8y_142 <= 0
x_143 - 8y_143 <= 0
x_144 - 8y_144 <= 0
x_145 - 8y_145 <= 0
x_146 - 8y_146 <= 0
x_147 - 8y_147 <= 0
x_148 - 8y_148 <= 0
x_149 - 8y_149 <= 0
x_150 - 8y_150 <= 0
x_151 - 8y_151 <= 0
x_152 - 8y_152 <= 0
x_153 - 8y_153 <= 0
x_154 - 8y_154 <= 0
x_155 - 8y_155 <= 0
x_156 - 8y_156 <= 0
x_157 - 8y_157 <= 0
x_158 - 8y_158 <= 0
x_159 - 8y_159 <= 0
x_160 - 8y_160 <= 0
x_161 - 8y_161 <= 0
x_162 - 8y_162 <= 0
x_163 - 8y_163 <= 0
x_164 - 8y_164 <= 0
x_165 - 8y_165 <= 0
x_166 - 8y_166 <= 0
x_167 - 8y_167 <= 0
x_168 - 8y_168 <= 0
x_169 - 8y_169 <= 0
x_170 - 8y_170 <= 0
x_171 - 8y_171 <= 0
x_172 - 8y_172 <= 0
x_173 - 8y_173 <= 0
x_174 - 8y_174 <= 0
x_175 - 8y_175 <= 0
x_176 - 8y_176 <= 0
x_177 - 8y_177 <= 0
x_178 - 8y_178 <= 0
x_179 - 8y_179 <= 0
x_180 - 8y_180 <= 0
x_181 - 8y_181 <= 0
x_182 - 8y_182 <= 0
x_183 - 8y_183 <= 0
x_184 - 8y_184 <= 0
x_185 - 8y_185 <= 0
x_186 - 8y_186 <= 0
x_187 - 8y_187 <= 0
x_188 - 8y_188 <= 0
x_189 - 8y_189 <= 0
x_190 - 8y_190 <= 0
x_191 - 8y_191 <= 0
x_192 - 8y_192 <= 0
x_193 - 8y_193 <= 0
x_194 - 8y_194 <= 0
x_195 - 8y_195 <= 0
x_196 - 8y_196 <= 0
x_197 - 8y_197 <= 0
x_198 - 8y_198 <= 0
x_199 - 8y_199 <= 0
x_200 - 8y_200 <= 0
x_201 - 8y_201 <= 0
x_202 - 8y_202 <= 0
x_203 - 8y_203 <= 0
x_204 - 8y_204 <= 0
x_205 - 8y_205 <= 0
x_206 - 8y_206 <= 0
x_207 - 8y_207 <= 0
x_208 - 8y_208 <= 0
x_209 - 8y_209 <= 0
x_210 - 8y_210 <= 0
x_211 - 8y_211 <= 0
x_212 - 8y_212 <= 0
x_213 - 8y_213 <= 0
x_214 - 8y_214 <= 0
x_215 - 8y_215 <= 0
x_216 - 8y_216 <= 0
x_217 - 8y_217 <= 0
x_218 - 8y_218 <= 0
x_219 - 8y_219 <= 0
x_220 - 8y_220 <= 0
x_221 - 8y_221 <= 0
x_222 - 8y_222 <= 0
x_223 - 8y_223 <= 0
x_224 - 8y_224 <= 0
x_225 - 8y_225 <= 0
x_226 - 8y_226 <= 0
x_227 - 8y_227 <= 0
x_228 - 8y_228 <= 0
x_229 - 8y_229 <= 0
x_230 - 8y_230 <= 0
x_231 - 8y_231 <= 0
x_232 - 8y_232 <= 0
x_233 - 8y_233 <= 0
x_234 - 8y_234 <= 0
x_235 - 8y_235 <= 0
x_236 - 8y_236 <= 0
x_237 - 8y_237 <= 0
x_238 - 8y_238 <= 0
x_239 - 8y_239 <= 0
x_240 - 8y_240 <= 0
x_241 - 8y_241 <= 0
x_242 - 8y_242 <= 0
x_243 - 8y_243 <= 0
x_244 - 8y_244 <= 0
x_245 - 8y_245 <= 0
x_246 - 8y_246 <= 0
x_247 - 8y_247 <= 0
x_248 - 8y_248 <= 0
x_249 - 8y_249 <= 0
x_250 - 8y_250 <= 0
x_251 - 8y_251 <= 0
x_252 - 8y_252 <= 0
x_253 - 8y_253 <= 0
x_254 - 8y_254 <= 0
x_255 - 8y_255 <= 0
x_256 - 8y_256 <= 0
x_257 - 8y_257 <= 0
x_258 - 8y_258 <= 0
x_259 - 8y_259 <= 0
x_260 - 8y_260 <= 0
x_261 - 8y_261 <= 0
x_262 - 8y_262 <= 0
x_263 - 8y_263 <= 0
x_264 - 8y_264 <= 0
x_265 - 8y_265 <= 0
x_266 - 8y_266 <= 0
x_267 - 8y_267 <= 0
x_268 - 8y_268 <= 0
x_269 - 8y_269 <= 0
x_270 - 8y_270 <= 0
x_271 - 8y_271 <= 0
x_272 - 8y_272 <= 0
x_273 - 8y_273 <= 0
x_274 - 8y_274 <= 0
x_275 - 8y_275 <= 0
x_276 - 8y_276 <= 0
x_277 - 8y_277 <= 0
x_278 - 8y_278 <= 0
x_279 - 8y_279 <= 0
x_280 - 8y_280 <= 0
x_281 - 8y_281 <= 0
x_282 - 8y_282 <= 0
x_283 - 8y_283 <= 0
x_284 - 8y_284 <= 0
x_285 - 8y_285 <= 0
x_286 - 8y_286 <= 0
x_287 - 8y_287 <= 0
x_288 - 8y_288 <= 0
x_289 - 8y_289 <= 0
x_290 - 8y_290 <= 0
x_291 - 8y_291 <= 0
x_292 - 8y_292 <= 0
x_293 - 8y_293 <= 0
x_294 - 8y_294 <= 0
x_295 - 8y_295 <= 0
x_296 - 8y_296 <= 0
x_297 - 8y_297 <= 0
x_298 - 8y_298 <= 0
x_299 - 8y_299 <= 0
x_300 - 8y_300 <= 0
x_301 - 8y_301 <= 0
x_302 - 8y_302 <= 0
x_303 - 8y_303 <= 0
x_304 - 8y_304 <= 0
x_305 - 8y_305 <= 0
x_306 - 8y_306 <= 0
x_307 - 8y_307 <= 0
x_308 - 8y_308 <= 0
x_309 - 8y_309 <= 0
x_310 - 8y_310 <= 0
x_311 - 8y_311 <= 0
x_312 - 8y_312 <= 0
x_313 - 8y_313 <= 0
x_314 - 8y_314 <= 0
x_315 - 8y_315 <= 0
x_316 - 8y_316 <= 0
x_317 - 8y_317 <= 0
x_318 - 8y_318 <= 0
x_319 - 8y_319 <= 0
x_320 - 8y_320 <= 0
x_321 - 8y_321 <= 0
x_322 - 8y_322 <= 0
x_323 - 8y_323 <= 0
x_324 - 8y_324 <= 0
x_325 - 8y_325 <= 0
x_326 - 8y_326 <= 0
x_327 - 8y_327 <= 0
x_328 - 8y_328 <= 0
x_329 - 8y_329 <= 0
x_330 - 8y_330 <= 0
x_331 - 8y_331 <= 0
x_332 - 8y_332 <= 0
x_333 - 8y_333 <= 0
x_334 - 8y_334 <= 0
x_335 - 8y_335 <= 0
x_336 - 8y_336 <= 0
x_337 - 8y_337 <= 0
x_338 - 8y_338 <= 0
x_339 - 8y_339 <= 0
x_340 - 8y_340 <= 0
x_341 - 8y_341 <= 0
x_342 - 8y_342 <= 0
x_343 - 8y_343 <= 0
x_344 - 8y_344 <= 0
x_345 - 8y_345 <= 0
x_346 - 8y_346 <= 0
x_347 - 8y_347 <= 0
x_348 - 8y_348 <= 0
x_349 - 8y_349 <= 0
x_350 - 8y_350 <= 0
x_351 - 8y_351 <= 0
x_352 - 8y_352 <= 0
x_353 - 8y_353 <= 0
x_354 - 8y_354 <= 0
x_355 - 8y_355 <= 0
x_356 - 8y_356 <= 0
x_357 - 8y_357 <= 0
x_358 - 8y_358 <= 0
x_359 - 8y_359 <= 0
x_360 - 8y_360 <= 0
x_361 - 8y_361 <= 0
x_362 - 8y_362 <= 0
x_363 - 8y_363 <= 0
x_364 - 8y_364 <= 0
x_365 - 8y_365 <= 0
x_366 - 8y_366 <= 0
x_367 - 8y_367 <= 0
x_368 - 8y_368 <= 0
x_369 - 8y_369 <= 0
x_370 - 8y_370 <= 0
x_371 - 8y_371 <= 0
x_372 - 8y_372 <= 0
x_373 - 8y_373 <= 0
x_374 - 8y_374 <= 0
x_375 - 8y_375 <= 0
x_376 - 8y_376 <= 0
x_377 - 8y_377 <= 0
x_378 - 8y_378 <= 0
x_379 - 8y_379 <= 0
x_380 - 8y_380 <= 0
x_381 - 8y_381 <= 0
x_382 - 8y_382 <= 0
x_383 - 8y_383 <= 0
x_384 - 8y_384 <= 0
x_385 - 8y_385 <= 0
x_386 - 8y_386 <= 0
x_387 - 8y_387 <= 0
x_388 - 8y_388 <= 0
x_389 - 8y_389 <= 0
x_390 - 8y_390 <= 0
x_391 - 8y_391 <= 0
x_392 - 8y_392 <= 0
x_393 - 8y_393 <= 0
x_394 - 8y_394 <= 0
x_395 - 8y_395 <= 0
x_396 - 8y_396 <= 0
x_397 - 8y_397 <= 0
x_398 - 8y_398 <= 0
x_399 - 8y_399 <= 0
x_400 - 8y_400 <= 0
x_401 - 8y_401 <= 0
x_402 - 8y_402 <= 0
x_403 - 8y_403 <= 0
x_404 - 8y_404 <= 0
x_405 - 8y_405 <= 0
x_406 - 8y_406 <= 0
x_407 - 8y_407 <= 0
x_408 - 8y_408 <= 0
x_409 - 8y_409 <= 0
x_410 - 8y_410 <= 0
x_411 - 8y_411 <= 0
x_412 - 8y_412 <= 0
x_413 - 8y_413 <= 0
x_414 - 8y_414 <= 0
x_415 - 8y_415 <= 0
x_416 - 8y_416 <= 0
x_417 - 8y_417 <= 0
x_418 - 8y_418 <= 0
x_419 - 8y_419 <= 0
x_420 - 8y_420 <= 0
x_421 - 8y_421 <= 0
x_422 - 8y_422 <= 0
x_423 - 8y_423 <= 0
x_424 - 8y_424 <= 0
x_425 - 8y_425 <= 0
x_426 - 8y_426 <= 0
x_427 - 8y_427 <= 0
x_428 - 8y_428 <= 0
x_429 - 8y_429 <= 0
x_430 - 8y_430 <= 0
x_431 - 8y_431 <= 0
x_432 - 8y_432 <= 0
x_433 - 8y_433 <= 0
x_434 - 8y_434 <= 0
x_435 - 8y_435 <= 0
x_436 - 8y_436 <= 0
x_437 - 8y_437 <= 0
x_438 - 8y_438 <= 0
x_439 - 8y_439 <= 0
x_440 - 8y_440 <= 0
x_441 - 8y_441 <= 0
x_442 - 8y_442 <= 0
x_443 - 8y_443 <= 0
x_444 - 8y_444 <= 0
x_445 - 8y_445 <= 0
x_446 - 8y_446 <= 0
x_447 - 8y_447 <= 0
x_448 - 8y_448 <= 0
x_449 - 8y_449 <= 0
x_450 - 8y_450 <= 0
x_451 - 8y_451 <= 0
x_452 - 8y_452 <= 0
x_453 - 8y_453 <= 0
x_454 - 8y_454 <= 0
x_455 - 8y_455 <= 0
x_456 - 8y_456 <= 0
x_457 - 8y_457 <= 0
x_458 - 8y_458 <= 0
x_459 - 8y_459 <= 0
x_460 - 8y_460 <= 0
x_461 - 8y_461 <= 0
x_462 - 8y_462 <= 0
x_463 - 8y_463 <= 0
x_464 - 8y_464 <= 0
x_465 - 8y_465 <= 0
x_466 - 8y_466 <= 0
x_467 - 8y_467 <= 0
x_468 - 8y_468 <= 0
x_469 - 8y_469 <= 0
x_470 - 8y_470 <= 0
x_471 - 8y_471 <= 0
x_472 - 8y_472 <= 0
x_473 - 8y_473 <= 0
x_474 - 8y_474 <= 0
x_475 - 8y_475 <= 0
x_476 - 8y_476 <= 0
x_477 - 8y_477 <= 0
x_478 - 8y_478 <= 0
x_479 - 8y_479 <= 0
x_480 - 8y_480 <= 0
x_481 - 8y_481 <= 0
x_482 - 8y_482 <= 0
x_483 - 8y_483 <= 0
x_484 - 8y_484 <= 0
x_485 - 8y_485 <= 0
x_486 - 8y_486 <= 0
x_487 - 8y_487 <= 0
x_488 - 8y_488 <= 0
x_489 - 8y_489 <= 0
x_490 - 8y_490 <= 0
x_491 - 8y_491 <= 0
x_492 - 8y_492 <= 0
x_493 - 8y_493 <= 0
x_494 - 8y_494 <= 0
x_495 - 8y_495 <= 0
x_496 - 8y_496 <= 0
x_497 - 8y_497 <= 0
x_498 - 8y_498 <= 0
x_499 - 8y_499 <= 0
x_500 - 8y_500 <= 0
x_501 - 8y_501 <= 0
x_502 - 8y_502 <= 0
x_503 - 8y_503 <= 0
x_504 - 8y_504 <= 0
x_505 - 8y_505 <= 0
x_506 - 8y_506 <= 0
x_507 - 8y_507 <= 0
x_508 - 8y_508 <= 0
x_509 - 8y_509 <= 0
x_510 - 8y_510 <= 0
x_511 - 8y_511 <= 0
x_512 - 8y_512 <= 0
x_513 - 8y_513 <= 0
x_514 - 8y_514 <= 0
x_515 - 8y_515 <= 0
x_516 - 8y_516 <= 0
x_517 - 8y_517 <= 0
x_518 - 8y_518 <= 0
x_519 - 8y_519 <= 0
x_520 - 8y_520 <= 0
x_521 - 8y_521 <= 0
x_522 - 8y_522 <= 0
x_523 - 8y_523 <= 0
x_524 - 8y_524 <= 0
x_525 - 8y_525 <= 0
x_526 - 8y_526 <= 0
x_527 - 8y_527 <= 0
x_528 - 8y_528 <= 0
x_529 - 8y_529 <= 0
x_530 - 8y_530 <= 0
x_531 - 8y_531 <= 0
x_532 - 8y_532 <= 0
x_533 - 8y_533 <= 0
x_534 - 8y_534 <= 0
x_535 - 8y_535 <= 0
x_536 - 8y_536 <= 0
x_537 - 8y_537 <= 0
x_538 - 8y_538 <= 0
x_539 - 8y_539 <= 0
x_540 - 8y_540 <= 0
x_541 - 8y_541 <= 0
x_542 - 8y_542 <= 0
x_543 - 8y_543 <= 0
x_544 - 8y_544 <= 0
x_545 - 8y_545 <= 0
x_546 - 8y_546 <= 0
x_547 - 8y_547 <= 0
x_548 - 8y_548 <= 0
x_549 - 8y_549 <= 0
x_550 - 8y_550 <= 0
x_551 - 8y_551 <= 0
x_552 - 8y_552 <= 0
x_553 - 8y_553 <= 0
x_554 - 8y_554 <= 0
x_555 - 8y_555 <= 0
x_556 - 8y_556 <= 0
x_557 - 8y_557 <= 0
x_558 - 8y_558 <= 0
x_559 - 8y_559 <= 0
x_560 - 8y_560 <= 0
x_561 - 8y_561 <= 0
x_562 - 8y_562 <= 0
x_563 - 8y_563 <= 0
x_564 - 8y_564 <= 0
x_565 - 8y_565 <= 0
x_566 - 8y_566 <= 0
x_567 - 8y_567 <= 0
x_568 - 8y_568 <= 0
x_569 - 8y_569 <= 0
x_570 - 8y_570 <= 0
x_571 - 8y_571 <= 0
x_572 - 8y_572 <= 0
x_573 - 8y_573 <= 0
x_574 - 8y_574 <= 0
x_575 - 8y_575 <= 0
x_576 - 8y_576 <= 0
x_1 - x_74 +  x_9 - x_117 +  x_7 - x_16 +  x_8 - x_43 +  x_2 - x_28 - x_578 +  x_4 - x_23 +  x_3 - x_436 +  x_5 - x_149 +  x_6 - x_296 = 0
x_13 - x_51 +  x_11 - x_156 +  x_10 - x_19 +  x_14 - x_447 +  x_18 - x_126 +  x_12 - x_29 +  x_15 - x_88 +  x_17 - x_306 +  x_16 - x_7 = 0
x_24 - x_31 +  x_21 - x_92 +  x_23 - x_4 +  x_22 - x_451 +  x_26 - x_135 +  x_27 - x_315 +  x_19 - x_10 +  x_20 - x_165 +  x_25 - x_62 = 0
x_36 - x_468 +  x_34 - x_70 +  x_28 - x_2 +  x_30 - x_141 +  x_32 - x_174 +  x_33 - x_105 +  x_35 - x_323 +  x_31 - x_24 +  x_29 - x_12 = 0
x_41 - x_114 +  x_37 - x_469 +  x_40 - x_61 +  x_42 - x_329 +  x_45 - x_81 +  x_43 - x_8 +  x_44 - x_188 +  x_38 - x_65 +  x_39 - x_49 = 0
x_48 - x_191 +  x_51 - x_13 +  x_47 - x_119 +  x_50 - x_338 +  x_53 - x_85 +  x_49 - x_39 +  x_46 - x_64 +  x_52 - x_483 +  x_54 - x_63 = 0
x_62 - x_25 +  x_60 - x_490 +  x_55 - x_200 +  x_63 - x_54 +  x_56 - x_128 +  x_58 - x_68 +  x_57 - x_348 +  x_61 - x_40 +  x_59 - x_95 = 0
x_64 - x_46 +  x_68 - x_58 +  x_66 - x_209 +  x_72 - x_144 +  x_71 - x_357 +  x_69 - x_501 +  x_67 - x_102 +  x_65 - x_38 +  x_70 - x_34 = 0
x_79 - x_112 +  x_74 - x_1 +  x_75 - x_218 +  x_78 - x_86 +  x_76 - x_511 +  x_81 - x_45 +  x_73 - x_100 +  x_80 - x_98 +  x_77 - x_365 = 0
x_90 - x_377 +  x_88 - x_15 +  x_83 - x_118 +  x_82 - x_514 +  x_85 - x_53 +  x_89 - x_97 +  x_86 - x_78 +  x_84 - x_228 +  x_87 - x_106 = 0
x_92 - x_21 +  x_91 - x_379 +  x_97 - x_89 +  x_93 - x_523 +  x_99 - x_108 +  x_98 - x_80 +  x_94 - x_132 +  x_96 - x_240 +  x_95 - x_59 = 0
x_104 - x_247 +  x_105 - x_33 +  x_108 - x_99 +  x_106 - x_87 +  x_101 - x_532 +  x_103 - x_139 +  x_102 - x_67 +  x_107 - x_391 +  x_100 - x_73 = 0
x_113 - x_547 +  x_115 - x_125 +  x_111 - x_133 +  x_114 - x_41 +  x_109 - x_397 +  x_116 - x_143 +  x_110 - x_255 +  x_112 - x_79 +  x_117 - x_9 = 0
x_124 - x_551 +  x_126 - x_18 +  x_118 - x_83 +  x_122 - x_138 +  x_125 - x_115 +  x_123 - x_266 +  x_120 - x_410 +  x_119 - x_47 +  x_121 - x_129 = 0
x_128 - x_56 +  x_135 - x_26 +  x_129 - x_121 +  x_133 - x_111 +  x_132 - x_94 +  x_127 - x_136 +  x_131 - x_419 +  x_130 - x_273 +  x_134 - x_565 = 0
x_140 - x_285 +  x_137 - x_568 +  x_139 - x_103 +  x_138 - x_122 +  x_142 - x_427 +  x_136 - x_127 +  x_143 - x_116 +  x_577 +  x_141 - x_30 +  x_144 - x_72 = 0
x_153 - x_440 +  x_152 - x_177 +  x_150 - x_293 +  x_151 - x_171 +  x_148 - x_219 +  x_145 - x_181 +  x_149 - x_5 +  x_146 - x_256 +  x_147 - x_160 = 0
x_155 - x_163 +  x_159 - x_443 +  x_154 - x_226 +  x_162 - x_175 +  x_158 - x_265 +  x_160 - x_147 +  x_161 - x_193 +  x_157 - x_299 +  x_156 - x_11 = 0
x_165 - x_20 +  x_168 - x_176 +  x_164 - x_235 +  x_167 - x_205 +  x_169 - x_312 +  x_163 - x_155 +  x_166 - x_276 +  x_171 - x_151 +  x_170 - x_456 = 0
x_172 - x_320 +  x_174 - x_32 +  x_178 - x_287 - x_579 +  x_177 - x_152 +  x_179 - x_216 +  x_176 - x_168 +  x_180 - x_251 +  x_173 - x_463 +  x_175 - x_162 = 0
x_184 - x_258 +  x_181 - x_145 +  x_182 - x_199 +  x_185 - x_198 +  x_189 - x_224 +  x_188 - x_44 +  x_183 - x_213 +  x_187 - x_477 +  x_186 - x_330 = 0
x_191 - x_48 +  x_195 - x_268 +  x_192 - x_204 +  x_193 - x_161 +  x_197 - x_215 +  x_194 - x_231 +  x_190 - x_334 +  x_196 - x_484 +  x_198 - x_185 = 0
x_205 - x_167 +  x_204 - x_192 +  x_206 - x_243 +  x_203 - x_274 +  x_202 - x_345 +  x_199 - x_182 +  x_200 - x_55 +  x_201 - x_210 +  x_207 - x_495 = 0
x_208 - x_280 +  x_215 - x_197 +  x_213 - x_183 +  x_209 - x_66 +  x_214 - x_354 +  x_216 - x_179 +  x_212 - x_245 +  x_211 - x_497 +  x_210 - x_201 = 0
x_217 - x_237 +  x_222 - x_250 +  x_220 - x_230 +  x_221 - x_367 +  x_225 - x_259 +  x_218 - x_75 +  x_219 - x_148 +  x_223 - x_512 +  x_224 - x_189 = 0
x_229 - x_236 +  x_230 - x_220 +  x_232 - x_520 +  x_233 - x_378 +  x_234 - x_252 +  x_226 - x_154 +  x_227 - x_262 +  x_231 - x_194 +  x_228 - x_84 = 0
x_243 - x_206 +  x_239 - x_526 +  x_240 - x_96 +  x_241 - x_249 +  x_242 - x_277 +  x_235 - x_164 +  x_237 - x_217 +  x_236 - x_229 +  x_238 - x_381 = 0
x_248 - x_390 +  x_249 - x_241 +  x_252 - x_234 +  x_245 - x_212 +  x_250 - x_222 +  x_246 - x_284 +  x_244 - x_534 +  x_247 - x_104 +  x_251 - x_180 = 0
x_258 - x_184 +  x_260 - x_278 +  x_256 - x_146 +  x_259 - x_225 +  x_255 - x_110 - x_584 +  x_257 - x_267 +  x_253 - x_541 +  x_254 - x_281 +  x_261 - x_404 = 0
x_262 - x_227 +  x_263 - x_271 +  x_265 - x_158 +  x_269 - x_288 +  x_267 - x_257 +  x_270 - x_558 +  x_264 - x_406 +  x_266 - x_123 +  x_268 - x_195 = 0
x_272 - x_283 +  x_276 - x_166 +  x_279 - x_422 +  x_277 - x_242 +  x_278 - x_260 +  x_273 - x_130 +  x_271 - x_263 +  x_274 - x_203 +  x_275 - x_560 = 0
x_282 - x_570 +  x_283 - x_272 +  x_284 - x_246 +  x_285 - x_140 +  x_280 - x_208 +  x_287 - x_178 +  x_281 - x_254 +  x_286 - x_426 +  x_288 - x_269 = 0
x_289 - x_317 +  x_297 - x_332 +  x_294 - x_313 +  x_296 - x_6 +  x_295 - x_437 +  x_290 - x_398 +  x_292 - x_366 +  x_293 - x_150 +  x_291 - x_302 = 0
x_302 - x_291 +  x_304 - x_412 +  x_305 - x_446 +  x_300 - x_318 +  x_306 - x_17 +  x_303 - x_373 +  x_301 - x_337 +  x_299 - x_157 +  x_298 - x_307 = 0
x_312 - x_169 +  x_310 - x_453 +  x_311 - x_384 +  x_309 - x_319 +  x_307 - x_298 +  x_314 - x_420 +  x_313 - x_294 +  x_308 - x_344 +  x_315 - x_27 = 0
x_322 - x_467 +  x_319 - x_309 +  x_324 - x_359 +  x_316 - x_388 +  x_317 - x_289 +  x_320 - x_172 +  x_323 - x_35 +  x_318 - x_300 +  x_321 - x_428 = 0
x_327 - x_349 +  x_329 - x_42 +  x_325 - x_470 +  x_332 - x_297 +  x_328 - x_340 +  x_326 - x_399 +  x_333 - x_360 +  x_331 - x_369 +  x_330 - x_186 = 0
x_340 - x_328 +  x_336 - x_346 +  x_339 - x_355 - x_580 +  x_335 - x_409 +  x_337 - x_301 +  x_338 - x_50 +  x_341 - x_375 +  x_342 - x_485 +  x_334 - x_190 = 0
x_349 - x_327 +  x_348 - x_57 +  x_343 - x_415 +  x_347 - x_353 +  x_350 - x_492 +  x_345 - x_202 +  x_344 - x_308 +  x_346 - x_336 +  x_351 - x_386 = 0
x_354 - x_214 +  x_352 - x_424 +  x_358 - x_503 +  x_355 - x_339 +  x_359 - x_324 +  x_356 - x_392 +  x_360 - x_333 +  x_353 - x_347 +  x_357 - x_71 = 0
x_364 - x_400 +  x_367 - x_221 +  x_361 - x_389 +  x_363 - x_380 +  x_368 - x_374 +  x_369 - x_331 +  x_366 - x_292 +  x_362 - x_506 +  x_365 - x_77 = 0
x_372 - x_382 +  x_377 - x_90 +  x_371 - x_411 +  x_373 - x_303 +  x_376 - x_394 +  x_370 - x_515 +  x_374 - x_368 +  x_375 - x_341 +  x_378 - x_233 = 0
x_380 - x_363 +  x_379 - x_91 +  x_386 - x_351 +  x_387 - x_423 +  x_384 - x_311 +  x_383 - x_525 - x_583 +  x_381 - x_238 +  x_385 - x_393 +  x_382 - x_372 = 0
x_389 - x_361 +  x_392 - x_356 +  x_390 - x_248 +  x_393 - x_385 +  x_391 - x_107 +  x_394 - x_376 +  x_396 - x_431 +  x_388 - x_316 +  x_395 - x_539 = 0
x_402 - x_414 +  x_403 - x_421 +  x_400 - x_364 +  x_401 - x_543 +  x_397 - x_109 +  x_399 - x_326 +  x_404 - x_261 +  x_398 - x_290 +  x_405 - x_432 = 0
x_413 - x_429 +  x_410 - x_120 +  x_406 - x_264 +  x_408 - x_550 +  x_409 - x_335 +  x_407 - x_416 +  x_412 - x_304 +  x_411 - x_371 +  x_414 - x_402 = 0
x_417 - x_559 +  x_423 - x_387 +  x_416 - x_407 +  x_418 - x_425 +  x_420 - x_314 +  x_422 - x_279 +  x_419 - x_131 +  x_415 - x_343 +  x_421 - x_403 = 0
x_429 - x_413 +  x_431 - x_396 +  x_430 - x_574 +  x_426 - x_286 +  x_424 - x_352 +  x_428 - x_321 +  x_427 - x_142 +  x_425 - x_418 +  x_432 - x_405 = 0
x_441 - x_459 +  x_433 - x_460 +  x_440 - x_153 +  x_437 - x_295 +  x_436 - x_3 +  x_435 - x_507 +  x_434 - x_473 +  x_438 - x_545 +  x_439 - x_450 = 0
x_443 - x_159 +  x_447 - x_14 +  x_448 - x_556 +  x_449 - x_455 +  x_444 - x_481 +  x_450 - x_439 +  x_442 - x_461 +  x_446 - x_305 +  x_445 - x_516 = 0
x_456 - x_170 +  x_453 - x_310 +  x_454 - x_562 +  x_457 - x_493 +  x_452 - x_464 +  x_458 - x_531 +  x_459 - x_441 +  x_451 - x_22 +  x_455 - x_449 = 0
x_466 - x_571 +  x_468 - x_36 +  x_460 - x_433 +  x_463 - x_173 +  x_464 - x_452 +  x_467 - x_322 +  x_461 - x_442 +  x_465 - x_499 +  x_462 - x_535 = 0
x_469 - x_37 +  x_476 - x_548 +  x_474 - x_509 +  x_477 - x_187 +  x_472 - x_478 +  x_473 - x_434 +  x_475 - x_502 +  x_471 - x_487 +  x_470 - x_325 = 0
x_483 - x_52 +  x_486 - x_522 +  x_480 - x_498 +  x_481 - x_444 +  x_482 - x_552 +  x_479 - x_488 +  x_478 - x_472 +  x_485 - x_342 +  x_484 - x_196 = 0
-x_581 +  x_494 - x_567 +  x_493 - x_457 +  x_487 - x_471 +  x_489 - x_500 +  x_488 - x_479 +  x_495 - x_207 +  x_490 - x_60 +  x_491 - x_527 +  x_492 - x_350 = 0
x_503 - x_358 +  x_496 - x_569 +  x_497 - x_211 +  x_504 - x_540 +  x_501 - x_69 +  x_500 - x_489 +  x_498 - x_480 +  x_499 - x_465 +  x_502 - x_475 = 0
x_507 - x_435 +  x_511 - x_76 +  x_513 - x_521 +  x_505 - x_542 +  x_512 - x_223 +  x_509 - x_474 +  x_510 - x_524 +  x_506 - x_362 +  x_508 - x_533 = 0
x_521 - x_513 +  x_518 - x_536 +  x_520 - x_232 +  x_517 - x_553 +  x_519 - x_529 +  x_514 - x_82 +  x_516 - x_445 +  x_515 - x_370 +  x_522 - x_486 - x_582 = 0
x_524 - x_510 +  x_523 - x_93 +  x_529 - x_519 +  x_531 - x_458 +  x_528 - x_563 +  x_530 - x_537 +  x_527 - x_491 +  x_525 - x_383 +  x_526 - x_239 = 0
x_537 - x_530 +  x_533 - x_508 +  x_540 - x_504 +  x_532 - x_101 +  x_534 - x_244 +  x_535 - x_462 +  x_536 - x_518 +  x_538 - x_575 +  x_539 - x_395 = 0
x_544 - x_566 +  x_548 - x_476 +  x_542 - x_505 +  x_541 - x_253 +  x_547 - x_113 +  x_543 - x_401 +  x_546 - x_557 +  x_545 - x_438 +  x_549 - x_576 = 0
x_551 - x_124 +  x_556 - x_448 +  x_557 - x_546 +  x_550 - x_408 +  x_554 - x_573 +  x_558 - x_270 +  x_553 - x_517 +  x_555 - x_564 +  x_552 - x_482 = 0
x_567 - x_494 +  x_563 - x_528 +  x_564 - x_555 +  x_560 - x_275 +  x_566 - x_544 +  x_561 - x_572 +  x_562 - x_454 +  x_565 - x_134 +  x_559 - x_417 = 0
x_570 - x_282 +  x_571 - x_466 +  x_574 - x_430 +  x_575 - x_538 +  x_568 - x_137 +  x_569 - x_496 +  x_572 - x_561 +  x_573 - x_554 +  x_576 - x_549 = 0
Bounds
x_1 >= 0
x_2 >= 0
x_3 >= 0
x_4 >= 0
x_5 >= 0
x_6 >= 0
x_7 >= 0
x_8 >= 0
x_9 >= 0
x_10 >= 0
x_11 >= 0
x_12 >= 0
x_13 >= 0
x_14 >= 0
x_15 >= 0
x_16 >= 0
x_17 >= 0
x_18 >= 0
x_19 >= 0
x_20 >= 0
x_21 >= 0
x_22 >= 0
x_23 >= 0
x_24 >= 0
x_25 >= 0
x_26 >= 0
x_27 >= 0
x_28 >= 0
x_29 >= 0
x_30 >= 0
x_31 >= 0
x_32 >= 0
x_33 >= 0
x_34 >= 0
x_35 >= 0
x_36 >= 0
x_37 >= 0
x_38 >= 0
x_39 >= 0
x_40 >= 0
x_41 >= 0
x_42 >= 0
x_43 >= 0
x_44 >= 0
x_45 >= 0
x_46 >= 0
x_47 >= 0
x_48 >= 0
x_49 >= 0
x_50 >= 0
x_51 >= 0
x_52 >= 0
x_53 >= 0
x_54 >= 0
x_55 >= 0
x_56 >= 0
x_57 >= 0
x_58 >= 0
x_59 >= 0
x_60 >= 0
x_61 >= 0
x_62 >= 0
x_63 >= 0
x_64 >= 0
x_65 >= 0
x_66 >= 0
x_67 >= 0
x_68 >= 0
x_69 >= 0
x_70 >= 0
x_71 >= 0
x_72 >= 0
x_73 >= 0
x_74 >= 0
x_75 >= 0
x_76 >= 0
x_77 >= 0
x_78 >= 0
x_79 >= 0
x_80 >= 0
x_81 >= 0
x_82 >= 0
x_83 >= 0
x_84 >= 0
x_85 >= 0
x_86 >= 0
x_87 >= 0
x_88 >= 0
x_89 >= 0
x_90 >= 0
x_91 >= 0
x_92 >= 0
x_93 >= 0
x_94 >= 0
x_95 >= 0
x_96 >= 0
x_97 >= 0
x_98 >= 0
x_99 >= 0
x_100 >= 0
x_101 >= 0
x_102 >= 0
x_103 >= 0
x_104 >= 0
x_105 >= 0
x_106 >= 0
x_107 >= 0
x_108 >= 0
x_109 >= 0
x_110 >= 0
x_111 >= 0
x_112 >= 0
x_113 >= 0
x_114 >= 0
x_115 >= 0
x_116 >= 0
x_117 >= 0
x_118 >= 0
x_119 >= 0
x_120 >= 0
x_121 >= 0
x_122 >= 0
x_123 >= 0
x_124 >= 0
x_125 >= 0
x_126 >= 0
x_127 >= 0
x_128 >= 0
x_129 >= 0
x_130 >= 0
x_131 >= 0
x_132 >= 0
x_133 >= 0
x_134 >= 0
x_135 >= 0
x_136 >= 0
x_137 >= 0
x_138 >= 0
x_139 >= 0
x_140 >= 0
x_141 >= 0
x_142 >= 0
x_143 >= 0
x_144 >= 0
x_145 >= 0
x_146 >= 0
x_147 >= 0
x_148 >= 0
x_149 >= 0
x_150 >= 0
x_151 >= 0
x_152 >= 0
x_153 >= 0
x_154 >= 0
x_155 >= 0
x_156 >= 0
x_157 >= 0
x_158 >= 0
x_159 >= 0
x_160 >= 0
x_161 >= 0
x_162 >= 0
x_163 >= 0
x_164 >= 0
x_165 >= 0
x_166 >= 0
x_167 >= 0
x_168 >= 0
x_169 >= 0
x_170 >= 0
x_171 >= 0
x_172 >= 0
x_173 >= 0
x_174 >= 0
x_175 >= 0
x_176 >= 0
x_177 >= 0
x_178 >= 0
x_179 >= 0
x_180 >= 0
x_181 >= 0
x_182 >= 0
x_183 >= 0
x_184 >= 0
x_185 >= 0
x_186 >= 0
x_187 >= 0
x_188 >= 0
x_189 >= 0
x_190 >= 0
x_191 >= 0
x_192 >= 0
x_193 >= 0
x_194 >= 0
x_195 >= 0
x_196 >= 0
x_197 >= 0
x_198 >= 0
x_199 >= 0
x_200 >= 0
x_201 >= 0
x_202 >= 0
x_203 >= 0
x_204 >= 0
x_205 >= 0
x_206 >= 0
x_207 >= 0
x_208 >= 0
x_209 >= 0
x_210 >= 0
x_211 >= 0
x_212 >= 0
x_213 >= 0
x_214 >= 0
x_215 >= 0
x_216 >= 0
x_217 >= 0
x_218 >= 0
x_219 >= 0
x_220 >= 0
x_221 >= 0
x_222 >= 0
x_223 >= 0
x_224 >= 0
x_225 >= 0
x_226 >= 0
x_227 >= 0
x_228 >= 0
x_229 >= 0
x_230 >= 0
x_231 >= 0
x_232 >= 0
x_233 >= 0
x_234 >= 0
x_235 >= 0
x_236 >= 0
x_237 >= 0
x_238 >= 0
x_239 >= 0
x_240 >= 0
x_241 >= 0
x_242 >= 0
x_243 >= 0
x_244 >= 0
x_245 >= 0
x_246 >= 0
x_247 >= 0
x_248 >= 0
x_249 >= 0
x_250 >= 0
x_251 >= 0
x_252 >= 0
x_253 >= 0
x_254 >= 0
x_255 >= 0
x_256 >= 0
x_257 >= 0
x_258 >= 0
x_259 >= 0
x_260 >= 0
x_261 >= 0
x_262 >= 0
x_263 >= 0
x_264 >= 0
x_265 >= 0
x_266 >= 0
x_267 >= 0
x_268 >= 0
x_269 >= 0
x_270 >= 0
x_271 >= 0
x_272 >= 0
x_273 >= 0
x_274 >= 0
x_275 >= 0
x_276 >= 0
x_277 >= 0
x_278 >= 0
x_279 >= 0
x_280 >= 0
x_281 >= 0
x_282 >= 0
x_283 >= 0
x_284 >= 0
x_285 >= 0
x_286 >= 0
x_287 >= 0
x_288 >= 0
x_289 >= 0
x_290 >= 0
x_291 >= 0
x_292 >= 0
x_293 >= 0
x_294 >= 0
x_295 >= 0
x_296 >= 0
x_297 >= 0
x_298 >= 0
x_299 >= 0
x_300 >= 0
x_301 >= 0
x_302 >= 0
x_303 >= 0
x_304 >= 0
x_305 >= 0
x_306 >= 0
x_307 >= 0
x_308 >= 0
x_309 >= 0
x_310 >= 0
x_311 >= 0
x_312 >= 0
x_313 >= 0
x_314 >= 0
x_315 >= 0
x_316 >= 0
x_317 >= 0
x_318 >= 0
x_319 >= 0
x_320 >= 0
x_321 >= 0
x_322 >= 0
x_323 >= 0
x_324 >= 0
x_325 >= 0
x_326 >= 0
x_327 >= 0
x_328 >= 0
x_329 >= 0
x_330 >= 0
x_331 >= 0
x_332 >= 0
x_333 >= 0
x_334 >= 0
x_335 >= 0
x_336 >= 0
x_337 >= 0
x_338 >= 0
x_339 >= 0
x_340 >= 0
x_341 >= 0
x_342 >= 0
x_343 >= 0
x_344 >= 0
x_345 >= 0
x_346 >= 0
x_347 >= 0
x_348 >= 0
x_349 >= 0
x_350 >= 0
x_351 >= 0
x_352 >= 0
x_353 >= 0
x_354 >= 0
x_355 >= 0
x_356 >= 0
x_357 >= 0
x_358 >= 0
x_359 >= 0
x_360 >= 0
x_361 >= 0
x_362 >= 0
x_363 >= 0
x_364 >= 0
x_365 >= 0
x_366 >= 0
x_367 >= 0
x_368 >= 0
x_369 >= 0
x_370 >= 0
x_371 >= 0
x_372 >= 0
x_373 >= 0
x_374 >= 0
x_375 >= 0
x_376 >= 0
x_377 >= 0
x_378 >= 0
x_379 >= 0
x_380 >= 0
x_381 >= 0
x_382 >= 0
x_383 >= 0
x_384 >= 0
x_385 >= 0
x_386 >= 0
x_387 >= 0
x_388 >= 0
x_389 >= 0
x_390 >= 0
x_391 >= 0
x_392 >= 0
x_393 >= 0
x_394 >= 0
x_395 >= 0
x_396 >= 0
x_397 >= 0
x_398 >= 0
x_399 >= 0
x_400 >= 0
x_401 >= 0
x_402 >= 0
x_403 >= 0
x_404 >= 0
x_405 >= 0
x_406 >= 0
x_407 >= 0
x_408 >= 0
x_409 >= 0
x_410 >= 0
x_411 >= 0
x_412 >= 0
x_413 >= 0
x_414 >= 0
x_415 >= 0
x_416 >= 0
x_417 >= 0
x_418 >= 0
x_419 >= 0
x_420 >= 0
x_421 >= 0
x_422 >= 0
x_423 >= 0
x_424 >= 0
x_425 >= 0
x_426 >= 0
x_427 >= 0
x_428 >= 0
x_429 >= 0
x_430 >= 0
x_431 >= 0
x_432 >= 0
x_433 >= 0
x_434 >= 0
x_435 >= 0
x_436 >= 0
x_437 >= 0
x_438 >= 0
x_439 >= 0
x_440 >= 0
x_441 >= 0
x_442 >= 0
x_443 >= 0
x_444 >= 0
x_445 >= 0
x_446 >= 0
x_447 >= 0
x_448 >= 0
x_449 >= 0
x_450 >= 0
x_451 >= 0
x_452 >= 0
x_453 >= 0
x_454 >= 0
x_455 >= 0
x_456 >= 0
x_457 >= 0
x_458 >= 0
x_459 >= 0
x_460 >= 0
x_461 >= 0
x_462 >= 0
x_463 >= 0
x_464 >= 0
x_465 >= 0
x_466 >= 0
x_467 >= 0
x_468 >= 0
x_469 >= 0
x_470 >= 0
x_471 >= 0
x_472 >= 0
x_473 >= 0
x_474 >= 0
x_475 >= 0
x_476 >= 0
x_477 >= 0
x_478 >= 0
x_479 >= 0
x_480 >= 0
x_481 >= 0
x_482 >= 0
x_483 >= 0
x_484 >= 0
x_485 >= 0
x_486 >= 0
x_487 >= 0
x_488 >= 0
x_489 >= 0
x_490 >= 0
x_491 >= 0
x_492 >= 0
x_493 >= 0
x_494 >= 0
x_495 >= 0
x_496 >= 0
x_497 >= 0
x_498 >= 0
x_499 >= 0
x_500 >= 0
x_501 >= 0
x_502 >= 0
x_503 >= 0
x_504 >= 0
x_505 >= 0
x_506 >= 0
x_507 >= 0
x_508 >= 0
x_509 >= 0
x_510 >= 0
x_511 >= 0
x_512 >= 0
x_513 >= 0
x_514 >= 0
x_515 >= 0
x_516 >= 0
x_517 >= 0
x_518 >= 0
x_519 >= 0
x_520 >= 0
x_521 >= 0
x_522 >= 0
x_523 >= 0
x_524 >= 0
x_525 >= 0
x_526 >= 0
x_527 >= 0
x_528 >= 0
x_529 >= 0
x_530 >= 0
x_531 >= 0
x_532 >= 0
x_533 >= 0
x_534 >= 0
x_535 >= 0
x_536 >= 0
x_537 >= 0
x_538 >= 0
x_539 >= 0
x_540 >= 0
x_541 >= 0
x_542 >= 0
x_543 >= 0
x_544 >= 0
x_545 >= 0
x_546 >= 0
x_547 >= 0
x_548 >= 0
x_549 >= 0
x_550 >= 0
x_551 >= 0
x_552 >= 0
x_553 >= 0
x_554 >= 0
x_555 >= 0
x_556 >= 0
x_557 >= 0
x_558 >= 0
x_559 >= 0
x_560 >= 0
x_561 >= 0
x_562 >= 0
x_563 >= 0
x_564 >= 0
x_565 >= 0
x_566 >= 0
x_567 >= 0
x_568 >= 0
x_569 >= 0
x_570 >= 0
x_571 >= 0
x_572 >= 0
x_573 >= 0
x_574 >= 0
x_575 >= 0
x_576 >= 0
x_577 >= 0
x_578 >= 0
x_579 >= 0
x_580 >= 0
x_581 >= 0
x_582 >= 0
x_583 >= 0
x_584 >= 0
General
Binaries
y_1
y_2
y_3
y_4
y_5
y_6
y_7
y_8
y_9
y_10
y_11
y_12
y_13
y_14
y_15
y_16
y_17
y_18
y_19
y_20
y_21
y_22
y_23
y_24
y_25
y_26
y_27
y_28
y_29
y_30
y_31
y_32
y_33
y_34
y_35
y_36
y_37
y_38
y_39
y_40
y_41
y_42
y_43
y_44
y_45
y_46
y_47
y_48
y_49
y_50
y_51
y_52
y_53
y_54
y_55
y_56
y_57
y_58
y_59
y_60
y_61
y_62
y_63
y_64
y_65
y_66
y_67
y_68
y_69
y_70
y_71
y_72
y_73
y_74
y_75
y_76
y_77
y_78
y_79
y_80
y_81
y_82
y_83
y_84
y_85
y_86
y_87
y_88
y_89
y_90
y_91
y_92
y_93
y_94
y_95
y_96
y_97
y_98
y_99
y_100
y_101
y_102
y_103
y_104
y_105
y_106
y_107
y_108
y_109
y_110
y_111
y_112
y_113
y_114
y_115
y_116
y_117
y_118
y_119
y_120
y_121
y_122
y_123
y_124
y_125
y_126
y_127
y_128
y_129
y_130
y_131
y_132
y_133
y_134
y_135
y_136
y_137
y_138
y_139
y_140
y_141
y_142
y_143
y_144
y_145
y_146
y_147
y_148
y_149
y_150
y_151
y_152
y_153
y_154
y_155
y_156
y_157
y_158
y_159
y_160
y_161
y_162
y_163
y_164
y_165
y_166
y_167
y_168
y_169
y_170
y_171
y_172
y_173
y_174
y_175
y_176
y_177
y_178
y_179
y_180
y_181
y_182
y_183
y_184
y_185
y_186
y_187
y_188
y_189
y_190
y_191
y_192
y_193
y_194
y_195
y_196
y_197
y_198
y_199
y_200
y_201
y_202
y_203
y_204
y_205
y_206
y_207
y_208
y_209
y_210
y_211
y_212
y_213
y_214
y_215
y_216
y_217
y_218
y_219
y_220
y_221
y_222
y_223
y_224
y_225
y_226
y_227
y_228
y_229
y_230
y_231
y_232
y_233
y_234
y_235
y_236
y_237
y_238
y_239
y_240
y_241
y_242
y_243
y_244
y_245
y_246
y_247
y_248
y_249
y_250
y_251
y_252
y_253
y_254
y_255
y_256
y_257
y_258
y_259
y_260
y_261
y_262
y_263
y_264
y_265
y_266
y_267
y_268
y_269
y_270
y_271
y_272
y_273
y_274
y_275
y_276
y_277
y_278
y_279
y_280
y_281
y_282
y_283
y_284
y_285
y_286
y_287
y_288
y_289
y_290
y_291
y_292
y_293
y_294
y_295
y_296
y_297
y_298
y_299
y_300
y_301
y_302
y_303
y_304
y_305
y_306
y_307
y_308
y_309
y_310
y_311
y_312
y_313
y_314
y_315
y_316
y_317
y_318
y_319
y_320
y_321
y_322
y_323
y_324
y_325
y_326
y_327
y_328
y_329
y_330
y_331
y_332
y_333
y_334
y_335
y_336
y_337
y_338
y_339
y_340
y_341
y_342
y_343
y_344
y_345
y_346
y_347
y_348
y_349
y_350
y_351
y_352
y_353
y_354
y_355
y_356
y_357
y_358
y_359
y_360
y_361
y_362
y_363
y_364
y_365
y_366
y_367
y_368
y_369
y_370
y_371
y_372
y_373
y_374
y_375
y_376
y_377
y_378
y_379
y_380
y_381
y_382
y_383
y_384
y_385
y_386
y_387
y_388
y_389
y_390
y_391
y_392
y_393
y_394
y_395
y_396
y_397
y_398
y_399
y_400
y_401
y_402
y_403
y_404
y_405
y_406
y_407
y_408
y_409
y_410
y_411
y_412
y_413
y_414
y_415
y_416
y_417
y_418
y_419
y_420
y_421
y_422
y_423
y_424
y_425
y_426
y_427
y_428
y_429
y_430
y_431
y_432
y_433
y_434
y_435
y_436
y_437
y_438
y_439
y_440
y_441
y_442
y_443
y_444
y_445
y_446
y_447
y_448
y_449
y_450
y_451
y_452
y_453
y_454
y_455
y_456
y_457
y_458
y_459
y_460
y_461
y_462
y_463
y_464
y_465
y_466
y_467
y_468
y_469
y_470
y_471
y_472
y_473
y_474
y_475
y_476
y_477
y_478
y_479
y_480
y_481
y_482
y_483
y_484
y_485
y_486
y_487
y_488
y_489
y_490
y_491
y_492
y_493
y_494
y_495
y_496
y_497
y_498
y_499
y_500
y_501
y_502
y_503
y_504
y_505
y_506
y_507
y_508
y_509
y_510
y_511
y_512
y_513
y_514
y_515
y_516
y_517
y_518
y_519
y_520
y_521
y_522
y_523
y_524
y_525
y_526
y_527
y_528
y_529
y_530
y_531
y_532
y_533
y_534
y_535
y_536
y_537
y_538
y_539
y_540
y_541
y_542
y_543
y_544
y_545
y_546
y_547
y_548
y_549
y_550
y_551
y_552
y_553
y_554
y_555
y_556
y_557
y_558
y_559
y_560
y_561
y_562
y_563
y_564
y_565
y_566
y_567
y_568
y_569
y_570
y_571
y_572
y_573
y_574
y_575
y_576
End
